
List of user-set options:

                                    Name   Value                used
                           compl_inf_tol = 1                     yes
                         constr_viol_tol = 1                     yes
                            dual_inf_tol = 1000                  yes
                           linear_solver = ma97                  yes
                              ma86_small = 1e-30                  no
                                  ma86_u = 0.0001                 no
                              ma97_order = best                  yes
                              ma97_small = 1e-30                 yes
                            ma97_switch1 = at_start              yes
                            ma97_switch2 = od_hd_reuse           yes
                                  ma97_u = 1e-06                 yes
                               ma97_umax = 0.5                   yes
                                max_iter = 1000                  yes
                    max_refinement_steps = 20                    yes
                    min_refinement_steps = 5                     yes
                                 mu_init = 1e-06                 yes
           mu_superlinear_decrease_power = 1.25                  yes
                   nlp_scaling_min_value = 1e-08                 yes
                        option_file_name = Preset_Case_430_pf.opt  yes
                             output_file = ./tmp/Preset_Case_430_pf.output  yes
                      print_user_options = yes                   yes
        required_infeasibility_reduction = 1                      no
                                     tol = 1e-08                 yes
                   warm_start_bound_frac = 1e-20                 yes
                   warm_start_bound_push = 1e-20                 yes
                   warm_start_init_point = yes                   yes
              warm_start_mult_bound_push = 1e-20                 yes
                warm_start_mult_init_max = 1e+40                 yes
             warm_start_slack_bound_frac = 1e-20                 yes
             warm_start_slack_bound_push = 1e-20                 yes

******************************************************************************
This program contains Ipopt, a library for large-scale nonlinear optimization.
 Ipopt is released as open source code under the Eclipse Public License (EPL).
         For more information visit http://projects.coin-or.org/Ipopt
******************************************************************************

This is Ipopt version 3.12.10, running with linear solver ma97.

Number of nonzeros in equality constraint Jacobian...:   123442
Number of nonzeros in inequality constraint Jacobian.:      213
Number of nonzeros in Lagrangian Hessian.............:    49069

Total number of variables............................:    31591
                     variables with only lower bounds:    12912
                variables with lower and upper bounds:    15130
                     variables with only upper bounds:        0
Total number of equality constraints.................:    31483
Total number of inequality constraints...............:       25
        inequality constraints with only lower bounds:        4
   inequality constraints with lower and upper bounds:        0
        inequality constraints with only upper bounds:       21

iter    objective    inf_pr   inf_du lg(mu)  ||d||  lg(rg) alpha_du alpha_pr  ls
   0 -5.3861606e+00 4.04e-03 1.02e+00  -6.0 0.00e+00    -  0.00e+00 0.00e+00   0
   1 -5.3894300e+00 3.34e+00 1.98e+01  -6.0 3.12e+05    -  1.03e-04 9.00e-04h  1
   2 -5.3899573e+00 3.33e+00 4.19e+01  -6.0 6.33e+03    -  1.71e-01 7.59e-04f  1
   3 -5.4322414e+00 3.13e+00 5.93e+01  -6.0 6.25e+03    -  1.65e-02 6.22e-02h  1
   4 -5.4245445e+00 3.12e+00 2.45e+05  -6.0 1.63e+04    -  3.04e-04 3.24e-03h  6
   5 -5.4888206e+00 6.87e+00 2.11e+05  -6.0 5.91e+03    -  1.36e-01 1.02e-01h  1
   6 -6.1234365e+00 2.28e+01 2.91e+05  -6.0 7.03e+03    -  9.26e-02 5.61e-01h  1
   7 -6.1298195e+00 3.04e+01 2.81e+05  -6.0 3.78e+03    -  3.97e-02 3.48e-01h  1
   8 -6.1801704e+00 7.17e+01 2.74e+05  -6.0 3.20e+03    -  1.71e-01 6.52e-01h  1
   9 -6.1420942e+00 4.41e+01 3.14e+06  -6.0 4.47e+01  -4.0 1.94e-02 3.86e-01h  1
iter    objective    inf_pr   inf_du lg(mu)  ||d||  lg(rg) alpha_du alpha_pr  ls
  10 -6.0910083e+00 1.32e-01 1.77e+05  -6.0 5.46e+00  -4.5 4.15e-01 1.00e+00h  1
  11 -6.0921383e+00 1.02e-01 1.36e+05  -6.0 5.51e+00  -5.0 7.88e-01 2.32e-01h  1
  12 -6.1101031e+00 3.49e+00 2.31e+03  -6.0 3.28e+01  -5.4 9.32e-01 1.00e+00h  1
  13 -6.1157323e+00 5.52e+00 2.28e+03  -6.0 3.78e+04    -  9.80e-03 1.31e-02h  1
  14 -6.1261841e+00 5.19e+00 2.15e+03  -6.0 2.87e+03    -  1.38e-01 6.04e-02h  1
  15 -6.1289135e+00 4.77e+00 1.96e+03  -6.0 1.77e+03    -  4.03e-01 8.51e-02h  1
  16 -6.1191282e+00 1.86e-01 8.93e+01  -6.0 4.82e+01  -5.9 3.21e-01 1.00e+00h  1
  17 -6.1271535e+00 2.74e-01 4.53e+01  -6.0 7.32e+01  -6.4 1.00e+00 4.95e-01h  1
  18 -6.1425001e+00 1.96e+00 3.31e+01  -6.0 1.31e+03    -  4.81e-01 2.72e-01h  1
  19 -6.1413194e+00 1.09e+00 4.02e+02  -6.0 3.45e+02  -6.9 2.88e-02 5.30e-01h  1
iter    objective    inf_pr   inf_du lg(mu)  ||d||  lg(rg) alpha_du alpha_pr  ls
  20 -6.1563459e+00 1.15e+01 1.65e+02  -6.0 1.32e+03    -  4.56e-01 6.35e-01h  1
  21 -6.1642298e+00 6.16e+00 3.62e+04  -6.0 5.94e+02    -  7.32e-01 8.05e-01h  1
  22 -6.1701498e+00 2.36e+00 4.53e+04  -6.0 3.34e+02  -7.3 5.03e-01 6.20e-01h  1
  23 -6.2096972e+00 1.50e+01 7.79e+04  -6.0 8.99e+03    -  4.20e-02 1.84e-01h  1
  24 -6.2110853e+00 1.29e+01 4.31e+04  -6.0 4.01e+03    -  2.85e-01 2.18e-01h  1
  25 -6.2096322e+00 3.30e+00 6.11e+04  -6.0 7.73e+02    -  4.75e-01 1.00e+00h  1
  26 -6.2180047e+00 1.52e+00 1.56e+02  -6.0 3.27e+02    -  6.47e-01 1.00e+00h  1
  27 -6.2204055e+00 1.47e+00 2.52e+02  -6.0 3.16e+03    -  5.87e-02 2.90e-02h  1
  28 -6.2248432e+00 1.27e+00 2.76e+02  -6.0 1.05e+03  -7.8 4.04e-01 1.60e-01h  1
  29 -6.2308096e+00 6.67e-01 9.45e+03  -6.0 1.52e+02    -  4.11e-01 1.00e+00h  1
iter    objective    inf_pr   inf_du lg(mu)  ||d||  lg(rg) alpha_du alpha_pr  ls
  30 -6.2362095e+00 1.21e+00 6.95e+03  -6.0 3.94e+03  -7.4 4.79e-02 3.55e-02h  1
  31 -6.2450432e+00 1.20e+00 9.44e+04  -6.0 2.06e+02    -  6.76e-02 1.00e+00h  1
  32 -6.2458234e+00 1.14e+00 2.83e+05  -6.0 2.13e+02    -  1.00e+00 5.47e-02h  1
  33 -6.2599097e+00 1.22e+00 1.17e+04  -6.0 2.09e+02    -  7.49e-01 1.00e+00h  1
  34 -6.2669867e+00 1.09e+00 4.24e+05  -6.0 2.94e+02    -  8.17e-01 3.63e-01h  1
  35r-6.2669867e+00 1.09e+00 1.00e+03   0.0 0.00e+00    -  0.00e+00 1.79e-07R  2
  36r-6.2850385e+00 1.09e+00 1.00e+03   0.0 1.86e+04    -  2.72e-06 1.65e-06f  1
  37 -6.2843150e+00 1.05e+00 9.79e+05  -6.0 7.09e+00    -  6.45e-01 3.83e-02h  1
  38 -6.2768608e+00 6.25e-01 1.05e+07  -6.0 6.75e+00    -  3.83e-02 4.05e-01h  1
  39 -6.2655081e+00 7.67e-04 1.30e+02  -6.0 4.19e+00    -  6.93e-01 1.00e+00h  1
iter    objective    inf_pr   inf_du lg(mu)  ||d||  lg(rg) alpha_du alpha_pr  ls
  40 -6.2657732e+00 3.64e-05 4.82e+00  -6.0 1.06e+00    -  9.59e-01 1.00e+00h  1
  41 -6.2666169e+00 5.68e-03 1.73e-01  -6.0 1.33e+01    -  9.70e-01 1.00e+00h  1
  42 -6.2708189e+00 2.95e-01 5.54e+03  -6.0 1.47e+02    -  6.57e-01 1.00e+00H  1
  43 -6.2763845e+00 1.29e-01 2.01e+00  -6.0 5.54e+01    -  9.23e-01 1.00e+00h  1
  44 -6.2735637e+00 4.28e-02 1.64e+00  -6.0 3.22e+01    -  9.96e-01 1.00e+00h  1
  45 -6.2720961e+00 1.57e-02 1.39e+00  -6.0 1.95e+01    -  1.00e+00 1.00e+00h  1
  46 -6.2715777e+00 6.13e-03 1.74e-01  -6.0 1.22e+01    -  1.00e+00 1.00e+00h  1
  47 -6.2713928e+00 1.98e-03 7.47e-02  -6.0 6.94e+00    -  1.00e+00 1.00e+00h  1
  48 -6.2713353e+00 3.15e-04 1.54e-02  -6.0 2.77e+00    -  1.00e+00 1.00e+00h  1
  49 -6.2713260e+00 5.03e-06 3.12e-04  -6.0 3.50e-01    -  1.00e+00 1.00e+00h  1
iter    objective    inf_pr   inf_du lg(mu)  ||d||  lg(rg) alpha_du alpha_pr  ls
  50 -6.2713258e+00 4.49e-09 2.19e-07  -6.0 1.04e-02    -  1.00e+00 1.00e+00h  1
  51 -6.2714033e+00 1.48e-02 5.38e+01  -7.5 4.94e+01    -  9.55e-01 7.69e-01h  1
  52 -6.2714055e+00 3.27e-03 9.87e+00  -7.5 1.20e+01    -  1.00e+00 8.52e-01h  1
  53 -6.2714045e+00 3.08e-05 1.34e-02  -7.5 1.76e+00    -  1.00e+00 1.00e+00h  1
  54 -6.2714045e+00 2.96e-10 3.08e-09  -7.5 8.70e-04    -  1.00e+00 1.00e+00h  1
  55 -6.2714061e+00 1.89e-05 6.76e-01  -9.0 1.60e+00    -  9.22e-01 8.48e-01h  1
  56 -6.2714063e+00 6.12e-07 4.63e-01  -9.0 2.45e-01    -  8.84e-01 1.00e+00f  1
  57 -6.2714063e+00 2.85e-10 1.66e-08  -9.0 4.02e-05    -  1.00e+00 1.00e+00h  1
  58 -6.2714063e+00 4.28e-10 2.44e-10  -9.0 8.11e-06    -  1.00e+00 1.00e+00h  1

Number of Iterations....: 58

                                   (scaled)                 (unscaled)
Objective...............:  -4.8995361929656607e+00   -6.2714063269960461e+00
Dual infeasibility......:   2.4390504346377339e-10    3.1219845563362992e-10
Constraint violation....:   4.2803783412669050e-10    4.2803783412669050e-10
Complementarity.........:   9.2369628830185325e-10    1.1823312490263722e-09
Overall NLP error.......:   9.2369628830185325e-10    1.1823312490263722e-09


Number of objective function evaluations             = 69
Number of objective gradient evaluations             = 59
Number of equality constraint evaluations            = 69
Number of inequality constraint evaluations          = 69
Number of equality constraint Jacobian evaluations   = 60
Number of inequality constraint Jacobian evaluations = 60
Number of Lagrangian Hessian evaluations             = 58
Total CPU secs in IPOPT (w/o function evaluations)   =    121.801
Total CPU secs in NLP function evaluations           =      2.274

EXIT: Optimal Solution Found.
